p cnf 179 703
-1 -33 0
-2 -33 0
1 2 33 0
1 2 -34 0
-1 -2 -34 0
-1 2 34 0
1 -2 34 0
33 -35 0
-3 -35 0
3 -33 35 0
3 -33 -36 0
-3 33 -36 0
3 33 36 0
-3 -33 36 0
35 -37 0
-4 -37 0
4 -35 37 0
4 -35 -38 0
-4 35 -38 0
4 35 38 0
-4 -35 38 0
37 -39 0
-5 -39 0
5 -37 39 0
5 -37 -40 0
-5 37 -40 0
5 37 40 0
-5 -37 40 0
39 -41 0
-6 -41 0
6 -39 41 0
6 -39 -42 0
-6 39 -42 0
6 39 42 0
-6 -39 42 0
41 -43 0
-7 -43 0
7 -41 43 0
7 -41 -44 0
-7 41 -44 0
7 41 44 0
-7 -41 44 0
43 -45 0
-8 -45 0
8 -43 45 0
8 -43 -46 0
-8 43 -46 0
8 43 46 0
-8 -43 46 0
5 -47 0
1 -47 0
-1 -5 47 0
-1 -5 -48 0
1 5 -48 0
1 -5 48 0
-1 5 48 0
-2 -6 49 0
-6 -47 49 0
-2 -47 49 0
2 6 -49 0
6 47 -49 0
2 47 -49 0
6 -49 -50 0
2 -49 -50 0
47 -49 -50 0
-6 49 50 0
-2 49 50 0
-47 49 50 0
-2 -6 -47 50 0
2 6 47 -50 0
-3 -7 51 0
-7 -49 51 0
-3 -49 51 0
3 7 -51 0
7 49 -51 0
3 49 -51 0
7 -51 -52 0
3 -51 -52 0
49 -51 -52 0
-7 51 52 0
-3 51 52 0
-49 51 52 0
-3 -7 -49 52 0
3 7 49 -52 0
-4 -8 53 0
-8 -51 53 0
-4 -51 53 0
4 8 -53 0
8 51 -53 0
4 51 -53 0
8 -53 -54 0
4 -53 -54 0
51 -53 -54 0
-8 53 54 0
-4 53 54 0
-51 53 54 0
-4 -8 -51 54 0
4 8 51 -54 0
5 -55 0
53 -55 0
-5 -53 55 0
-5 -53 -56 0
5 53 -56 0
-5 53 56 0
5 -53 56 0
6 -57 0
55 -57 0
-6 -55 57 0
-6 -55 -58 0
6 55 -58 0
-6 55 58 0
6 -55 58 0
7 -59 0
57 -59 0
-7 -57 59 0
-7 -57 -60 0
7 57 -60 0
-7 57 60 0
7 -57 60 0
8 -61 0
59 -61 0
-8 -59 61 0
-8 -59 -62 0
8 59 -62 0
-8 59 62 0
8 -59 62 0
-1 -63 0
-2 -63 0
1 2 63 0
1 2 -64 0
-1 -2 -64 0
-1 2 64 0
1 -2 64 0
63 -65 0
-3 -65 0
3 -63 65 0
3 -63 -66 0
-3 63 -66 0
3 63 66 0
-3 -63 66 0
65 -67 0
-4 -67 0
4 -65 67 0
4 -65 -68 0
-4 65 -68 0
4 65 68 0
-4 -65 68 0
67 -69 0
-48 -69 0
48 -67 69 0
48 -67 -70 0
-48 67 -70 0
48 67 70 0
-48 -67 70 0
69 -71 0
-50 -71 0
50 -69 71 0
50 -69 -72 0
-50 69 -72 0
50 69 72 0
-50 -69 72 0
71 -73 0
-52 -73 0
52 -71 73 0
52 -71 -74 0
-52 71 -74 0
52 71 74 0
-52 -71 74 0
73 -75 0
-54 -75 0
54 -73 75 0
54 -73 -76 0
-54 73 -76 0
54 73 76 0
-54 -73 76 0
75 -77 0
-56 -77 0
56 -75 77 0
56 -75 -78 0
-56 75 -78 0
56 75 78 0
-56 -75 78 0
77 -79 0
-58 -79 0
58 -77 79 0
58 -77 -80 0
-58 77 -80 0
58 77 80 0
-58 -77 80 0
79 -81 0
-60 -81 0
60 -79 81 0
60 -79 -82 0
-60 79 -82 0
60 79 82 0
-60 -79 82 0
81 -83 0
-62 -83 0
62 -81 83 0
62 -81 -84 0
-62 81 -84 0
62 81 84 0
-62 -81 84 0
83 -85 0
-61 -85 0
61 -83 85 0
61 -83 -86 0
-61 83 -86 0
61 83 86 0
-61 -83 86 0
-9 -87 0
-10 -87 0
9 10 87 0
9 10 -88 0
-9 -10 -88 0
-9 10 88 0
9 -10 88 0
87 -89 0
-11 -89 0
11 -87 89 0
11 -87 -90 0
-11 87 -90 0
11 87 90 0
-11 -87 90 0
89 -91 0
-12 -91 0
12 -89 91 0
12 -89 -92 0
-12 89 -92 0
12 89 92 0
-12 -89 92 0
91 -93 0
-13 -93 0
13 -91 93 0
13 -91 -94 0
-13 91 -94 0
13 91 94 0
-13 -91 94 0
93 -95 0
-14 -95 0
14 -93 95 0
14 -93 -96 0
-14 93 -96 0
14 93 96 0
-14 -93 96 0
95 -97 0
-15 -97 0
15 -95 97 0
15 -95 -98 0
-15 95 -98 0
15 95 98 0
-15 -95 98 0
97 -99 0
-16 -99 0
16 -97 99 0
16 -97 -100 0
-16 97 -100 0
16 97 100 0
-16 -97 100 0
10 -101 0
9 -101 0
-9 -10 101 0
-9 -10 -102 0
9 10 -102 0
9 -10 102 0
-9 10 102 0
-10 -11 103 0
-11 -101 103 0
-10 -101 103 0
10 11 -103 0
11 101 -103 0
10 101 -103 0
11 -103 -104 0
10 -103 -104 0
101 -103 -104 0
-11 103 104 0
-10 103 104 0
-101 103 104 0
-10 -11 -101 104 0
10 11 101 -104 0
-11 -12 105 0
-12 -103 105 0
-11 -103 105 0
11 12 -105 0
12 103 -105 0
11 103 -105 0
12 -105 -106 0
11 -105 -106 0
103 -105 -106 0
-12 105 106 0
-11 105 106 0
-103 105 106 0
-11 -12 -103 106 0
11 12 103 -106 0
-12 -13 107 0
-13 -105 107 0
-12 -105 107 0
12 13 -107 0
13 105 -107 0
12 105 -107 0
13 -107 -108 0
12 -107 -108 0
105 -107 -108 0
-13 107 108 0
-12 107 108 0
-105 107 108 0
-12 -13 -105 108 0
12 13 105 -108 0
-13 -14 109 0
-14 -107 109 0
-13 -107 109 0
13 14 -109 0
14 107 -109 0
13 107 -109 0
14 -109 -110 0
13 -109 -110 0
107 -109 -110 0
-14 109 110 0
-13 109 110 0
-107 109 110 0
-13 -14 -107 110 0
13 14 107 -110 0
-14 -15 111 0
-15 -109 111 0
-14 -109 111 0
14 15 -111 0
15 109 -111 0
14 109 -111 0
15 -111 -112 0
14 -111 -112 0
109 -111 -112 0
-15 111 112 0
-14 111 112 0
-109 111 112 0
-14 -15 -109 112 0
14 15 109 -112 0
-15 -16 113 0
-16 -111 113 0
-15 -111 113 0
15 16 -113 0
16 111 -113 0
15 111 -113 0
16 -113 -114 0
15 -113 -114 0
111 -113 -114 0
-16 113 114 0
-15 113 114 0
-111 113 114 0
-15 -16 -111 114 0
15 16 111 -114 0
16 -115 0
113 -115 0
-16 -113 115 0
-16 -113 -116 0
16 113 -116 0
-16 113 116 0
16 -113 116 0
106 -117 0
9 -117 0
-9 -106 117 0
-9 -106 -118 0
9 106 -118 0
9 -106 118 0
-9 106 118 0
-10 -108 119 0
-108 -117 119 0
-10 -117 119 0
10 108 -119 0
108 117 -119 0
10 117 -119 0
108 -119 -120 0
10 -119 -120 0
117 -119 -120 0
-108 119 120 0
-10 119 120 0
-117 119 120 0
-10 -108 -117 120 0
10 108 117 -120 0
-11 -110 121 0
-110 -119 121 0
-11 -119 121 0
11 110 -121 0
110 119 -121 0
11 119 -121 0
110 -121 -122 0
11 -121 -122 0
119 -121 -122 0
-110 121 122 0
-11 121 122 0
-119 121 122 0
-11 -110 -119 122 0
11 110 119 -122 0
-12 -112 123 0
-112 -121 123 0
-12 -121 123 0
12 112 -123 0
112 121 -123 0
12 121 -123 0
112 -123 -124 0
12 -123 -124 0
121 -123 -124 0
-112 123 124 0
-12 123 124 0
-121 123 124 0
-12 -112 -121 124 0
12 112 121 -124 0
-13 -114 125 0
-114 -123 125 0
-13 -123 125 0
13 114 -125 0
114 123 -125 0
13 123 -125 0
114 -125 -126 0
13 -125 -126 0
123 -125 -126 0
-114 125 126 0
-13 125 126 0
-123 125 126 0
-13 -114 -123 126 0
13 114 123 -126 0
-14 -116 127 0
-116 -125 127 0
-14 -125 127 0
14 116 -127 0
116 125 -127 0
14 125 -127 0
116 -127 -128 0
14 -127 -128 0
125 -127 -128 0
-116 127 128 0
-14 127 128 0
-125 127 128 0
-14 -116 -125 128 0
14 116 125 -128 0
-15 -115 129 0
-115 -127 129 0
-15 -127 129 0
15 115 -129 0
115 127 -129 0
15 127 -129 0
115 -129 -130 0
15 -129 -130 0
127 -129 -130 0
-115 129 130 0
-15 129 130 0
-127 129 130 0
-15 -115 -127 130 0
15 115 127 -130 0
16 -131 0
129 -131 0
-16 -129 131 0
-16 -129 -132 0
16 129 -132 0
-16 129 132 0
16 -129 132 0
-9 -133 0
-102 -133 0
9 102 133 0
9 102 -134 0
-9 -102 -134 0
-9 102 134 0
9 -102 134 0
133 -135 0
-104 -135 0
104 -133 135 0
104 -133 -136 0
-104 133 -136 0
104 133 136 0
-104 -133 136 0
135 -137 0
-118 -137 0
118 -135 137 0
118 -135 -138 0
-118 135 -138 0
118 135 138 0
-118 -135 138 0
137 -139 0
-120 -139 0
120 -137 139 0
120 -137 -140 0
-120 137 -140 0
120 137 140 0
-120 -137 140 0
139 -141 0
-122 -141 0
122 -139 141 0
122 -139 -142 0
-122 139 -142 0
122 139 142 0
-122 -139 142 0
141 -143 0
-124 -143 0
124 -141 143 0
124 -141 -144 0
-124 141 -144 0
124 141 144 0
-124 -141 144 0
143 -145 0
-126 -145 0
126 -143 145 0
126 -143 -146 0
-126 143 -146 0
126 143 146 0
-126 -143 146 0
145 -147 0
-128 -147 0
128 -145 147 0
128 -145 -148 0
-128 145 -148 0
128 145 148 0
-128 -145 148 0
147 -149 0
-130 -149 0
130 -147 149 0
130 -147 -150 0
-130 147 -150 0
130 147 150 0
-130 -147 150 0
149 -151 0
-132 -151 0
132 -149 151 0
132 -149 -152 0
-132 149 -152 0
132 149 152 0
-132 -149 152 0
151 -153 0
-131 -153 0
131 -151 153 0
131 -151 -154 0
-131 151 -154 0
131 151 154 0
-131 -151 154 0
3 -155 0
9 -155 0
-3 -9 155 0
-3 -9 -156 0
3 9 -156 0
-3 9 156 0
3 -9 156 0
-4 -102 157 0
-4 -155 157 0
-102 -155 157 0
4 102 -157 0
4 155 -157 0
102 155 -157 0
4 -157 -158 0
102 -157 -158 0
155 -157 -158 0
-4 157 158 0
-102 157 158 0
-155 157 158 0
-4 -102 -155 158 0
4 102 155 -158 0
-48 -104 159 0
-48 -157 159 0
-104 -157 159 0
48 104 -159 0
48 157 -159 0
104 157 -159 0
48 -159 -160 0
104 -159 -160 0
157 -159 -160 0
-48 159 160 0
-104 159 160 0
-157 159 160 0
-48 -104 -157 160 0
48 104 157 -160 0
-50 -118 161 0
-50 -159 161 0
-118 -159 161 0
50 118 -161 0
50 159 -161 0
118 159 -161 0
50 -161 -162 0
118 -161 -162 0
159 -161 -162 0
-50 161 162 0
-118 161 162 0
-159 161 162 0
-50 -118 -159 162 0
50 118 159 -162 0
-52 -120 163 0
-52 -161 163 0
-120 -161 163 0
52 120 -163 0
52 161 -163 0
120 161 -163 0
52 -163 -164 0
120 -163 -164 0
161 -163 -164 0
-52 163 164 0
-120 163 164 0
-161 163 164 0
-52 -120 -161 164 0
52 120 161 -164 0
-54 -122 165 0
-54 -163 165 0
-122 -163 165 0
54 122 -165 0
54 163 -165 0
122 163 -165 0
54 -165 -166 0
122 -165 -166 0
163 -165 -166 0
-54 165 166 0
-122 165 166 0
-163 165 166 0
-54 -122 -163 166 0
54 122 163 -166 0
-56 -124 167 0
-56 -165 167 0
-124 -165 167 0
56 124 -167 0
56 165 -167 0
124 165 -167 0
56 -167 -168 0
124 -167 -168 0
165 -167 -168 0
-56 167 168 0
-124 167 168 0
-165 167 168 0
-56 -124 -165 168 0
56 124 165 -168 0
-58 -126 169 0
-58 -167 169 0
-126 -167 169 0
58 126 -169 0
58 167 -169 0
126 167 -169 0
58 -169 -170 0
126 -169 -170 0
167 -169 -170 0
-58 169 170 0
-126 169 170 0
-167 169 170 0
-58 -126 -167 170 0
58 126 167 -170 0
-60 -128 171 0
-60 -169 171 0
-128 -169 171 0
60 128 -171 0
60 169 -171 0
128 169 -171 0
60 -171 -172 0
128 -171 -172 0
169 -171 -172 0
-60 171 172 0
-128 171 172 0
-169 171 172 0
-60 -128 -169 172 0
60 128 169 -172 0
-62 -130 173 0
-62 -171 173 0
-130 -171 173 0
62 130 -173 0
62 171 -173 0
130 171 -173 0
62 -173 -174 0
130 -173 -174 0
171 -173 -174 0
-62 173 174 0
-130 173 174 0
-171 173 174 0
-62 -130 -171 174 0
62 130 171 -174 0
-61 -132 175 0
-61 -173 175 0
-132 -173 175 0
61 132 -175 0
61 173 -175 0
132 173 -175 0
61 -175 -176 0
132 -175 -176 0
173 -175 -176 0
-61 175 176 0
-132 175 176 0
-173 175 176 0
-61 -132 -173 176 0
61 132 173 -176 0
131 -177 0
175 -177 0
-131 -175 177 0
-131 -175 -178 0
131 175 -178 0
-131 175 178 0
131 -175 178 0
1 -179 0
2 -179 0
-156 -179 0
158 -179 0
160 -179 0
162 -179 0
164 -179 0
-166 -179 0
-168 -179 0
-170 -179 0
-172 -179 0
-174 -179 0
-176 -179 0
-177 -179 0
-178 -179 0
-1 -2 156 -158 -160 -162 -164 166 168 170 172 174 176 177 178 179 0
179 0
c main::$tmp::return_value_nondet_char!0@1#1 17 18 19 20 21 22 23 24
c symex::nondet1 9 10 11 12 13 14 15 16
c symex::nondet0 1 2 3 4 5 6 7 8
c main::$tmp::return_value_nondet_char$0!0@1#2 9 10 11 12 13 14 15 16
c __CPROVER_rounding_mode!0#1 FALSE FALSE FALSE FALSE FALSE FALSE FALSE FALSE FALSE FALSE FALSE FALSE FALSE FALSE FALSE FALSE FALSE FALSE FALSE FALSE FALSE FALSE FALSE FALSE FALSE FALSE FALSE FALSE FALSE FALSE FALSE FALSE
c main::$tmp::return_value_nondet_char$0!0@1#1 25 26 27 28 29 30 31 32
c __CPROVER_memory_leak#1 FALSE FALSE FALSE FALSE FALSE FALSE FALSE FALSE FALSE FALSE FALSE FALSE FALSE FALSE FALSE FALSE FALSE FALSE FALSE FALSE FALSE FALSE FALSE FALSE FALSE FALSE FALSE FALSE FALSE FALSE FALSE FALSE FALSE FALSE FALSE FALSE FALSE FALSE FALSE FALSE FALSE FALSE FALSE FALSE FALSE FALSE FALSE FALSE FALSE FALSE FALSE FALSE FALSE FALSE FALSE FALSE FALSE FALSE FALSE FALSE FALSE FALSE FALSE FALSE
c __CPROVER_max_malloc_size#1 FALSE FALSE FALSE FALSE FALSE FALSE FALSE FALSE FALSE FALSE FALSE FALSE FALSE FALSE FALSE FALSE FALSE FALSE FALSE FALSE FALSE FALSE FALSE FALSE FALSE FALSE FALSE FALSE FALSE FALSE FALSE FALSE FALSE FALSE FALSE FALSE FALSE FALSE FALSE FALSE FALSE FALSE FALSE FALSE FALSE FALSE FALSE FALSE FALSE FALSE FALSE FALSE FALSE FALSE FALSE TRUE FALSE FALSE FALSE FALSE FALSE FALSE FALSE FALSE
c __CPROVER_deallocated#1 FALSE FALSE FALSE FALSE FALSE FALSE FALSE FALSE FALSE FALSE FALSE FALSE FALSE FALSE FALSE FALSE FALSE FALSE FALSE FALSE FALSE FALSE FALSE FALSE FALSE FALSE FALSE FALSE FALSE FALSE FALSE FALSE FALSE FALSE FALSE FALSE FALSE FALSE FALSE FALSE FALSE FALSE FALSE FALSE FALSE FALSE FALSE FALSE FALSE FALSE FALSE FALSE FALSE FALSE FALSE FALSE FALSE FALSE FALSE FALSE FALSE FALSE FALSE FALSE
c main::$tmp::return_value_nondet_char!0@1#2 1 2 3 4 5 6 7 8
c __CPROVER_dead_object#1 FALSE FALSE FALSE FALSE FALSE FALSE FALSE FALSE FALSE FALSE FALSE FALSE FALSE FALSE FALSE FALSE FALSE FALSE FALSE FALSE FALSE FALSE FALSE FALSE FALSE FALSE FALSE FALSE FALSE FALSE FALSE FALSE FALSE FALSE FALSE FALSE FALSE FALSE FALSE FALSE FALSE FALSE FALSE FALSE FALSE FALSE FALSE FALSE FALSE FALSE FALSE FALSE FALSE FALSE FALSE FALSE FALSE FALSE FALSE FALSE FALSE FALSE FALSE FALSE
